c turning on binary mode checking
c parsing input formula with 259840 variables and 1039929 clauses
c finished parsing, read 24342492 bytes from proof file
c detected empty clause; start verification via backward checking
c 18578 of 1039929 clauses in core                            
c 23854 of 610789 lemmas in core using 203648 resolution steps
c 0 RAT lemmas in core; 1423 redundant literals in core lemmas
s VERIFIED
c verification time: 3.226 seconds
